p cnf 122 437
1 2 3 4 5 0
-1 -2 0
-1 -3 0
-1 -4 0
-1 -5 0
-2 -3 0
-2 -4 0
-2 -5 0
-3 -4 0
-3 -5 0
-4 -5 0
6 7 8 9 0
-6 -7 0
-6 -8 0
-6 -9 0
-7 -8 0
-7 -9 0
-8 -9 0
10 11 12 13 14 0
-10 -11 0
-10 -12 0
-10 -13 0
-10 -14 0
-11 -12 0
-11 -13 0
-11 -14 0
-12 -13 0
-12 -14 0
-13 -14 0
15 16 17 18 19 0
-15 -16 0
-15 -17 0
-15 -18 0
-15 -19 0
-16 -17 0
-16 -18 0
-16 -19 0
-17 -18 0
-17 -19 0
-18 -19 0
20 21 22 23 0
-20 -21 0
-20 -22 0
-20 -23 0
-21 -22 0
-21 -23 0
-22 -23 0
24 25 26 27 0
-24 -25 0
-24 -26 0
-24 -27 0
-25 -26 0
-25 -27 0
-26 -27 0
28 29 30 31 32 0
-28 -29 0
-28 -30 0
-28 -31 0
-28 -32 0
-29 -30 0
-29 -31 0
-29 -32 0
-30 -31 0
-30 -32 0
-31 -32 0
33 34 35 36 37 0
-33 -34 0
-33 -35 0
-33 -36 0
-33 -37 0
-34 -35 0
-34 -36 0
-34 -37 0
-35 -36 0
-35 -37 0
-36 -37 0
38 39 40 0
-38 -39 0
-38 -40 0
-39 -40 0
41 42 43 44 45 0
-41 -42 0
-41 -43 0
-41 -44 0
-41 -45 0
-42 -43 0
-42 -44 0
-42 -45 0
-43 -44 0
-43 -45 0
-44 -45 0
46 47 48 49 50 0
-46 -47 0
-46 -48 0
-46 -49 0
-46 -50 0
-47 -48 0
-47 -49 0
-47 -50 0
-48 -49 0
-48 -50 0
-49 -50 0
51 52 53 54 0
-51 -52 0
-51 -53 0
-51 -54 0
-52 -53 0
-52 -54 0
-53 -54 0
55 56 57 58 59 0
-55 -56 0
-55 -57 0
-55 -58 0
-55 -59 0
-56 -57 0
-56 -58 0
-56 -59 0
-57 -58 0
-57 -59 0
-58 -59 0
60 61 62 63 64 0
-60 -61 0
-60 -62 0
-60 -63 0
-60 -64 0
-61 -62 0
-61 -63 0
-61 -64 0
-62 -63 0
-62 -64 0
-63 -64 0
65 66 67 68 0
-65 -66 0
-65 -67 0
-65 -68 0
-66 -67 0
-66 -68 0
-67 -68 0
69 70 71 72 0
-69 -70 0
-69 -71 0
-69 -72 0
-70 -71 0
-70 -72 0
-71 -72 0
73 74 75 76 77 0
-73 -74 0
-73 -75 0
-73 -76 0
-73 -77 0
-74 -75 0
-74 -76 0
-74 -77 0
-75 -76 0
-75 -77 0
-76 -77 0
78 79 80 81 82 0
-78 -79 0
-78 -80 0
-78 -81 0
-78 -82 0
-79 -80 0
-79 -81 0
-79 -82 0
-80 -81 0
-80 -82 0
-81 -82 0
83 84 85 86 0
-83 -84 0
-83 -85 0
-83 -86 0
-84 -85 0
-84 -86 0
-85 -86 0
87 88 89 90 0
-87 -88 0
-87 -89 0
-87 -90 0
-88 -89 0
-88 -90 0
-89 -90 0
91 92 93 94 95 0
-91 -92 0
-91 -93 0
-91 -94 0
-91 -95 0
-92 -93 0
-92 -94 0
-92 -95 0
-93 -94 0
-93 -95 0
-94 -95 0
96 97 98 99 100 0
-96 -97 0
-96 -98 0
-96 -99 0
-96 -100 0
-97 -98 0
-97 -99 0
-97 -100 0
-98 -99 0
-98 -100 0
-99 -100 0
101 102 103 104 0
-101 -102 0
-101 -103 0
-101 -104 0
-102 -103 0
-102 -104 0
-103 -104 0
105 106 107 108 109 0
-105 -106 0
-105 -107 0
-105 -108 0
-105 -109 0
-106 -107 0
-106 -108 0
-106 -109 0
-107 -108 0
-107 -109 0
-108 -109 0
110 111 112 113 0
-110 -111 0
-110 -112 0
-110 -113 0
-111 -112 0
-111 -113 0
-112 -113 0
114 115 116 117 0
-114 -115 0
-114 -116 0
-114 -117 0
-115 -116 0
-115 -117 0
-116 -117 0
118 119 120 121 122 0
-118 -119 0
-118 -120 0
-118 -121 0
-118 -122 0
-119 -120 0
-119 -121 0
-119 -122 0
-120 -121 0
-120 -122 0
-121 -122 0
-1 -41 0
-2 -42 0
-3 -43 0
-4 -44 0
-5 -45 0
-6 -10 0
-7 -11 0
-8 -13 0
-9 -14 0
-6 -20 0
-8 -22 0
-9 -23 0
-7 -69 0
-8 -71 0
-9 -72 0
-6 -78 0
-7 -79 0
-8 -81 0
-9 -82 0
-7 -101 0
-8 -103 0
-9 -104 0
-10 -20 0
-12 -21 0
-13 -22 0
-14 -23 0
-15 -33 0
-16 -34 0
-17 -35 0
-18 -36 0
-19 -37 0
-15 -55 0
-16 -56 0
-17 -57 0
-18 -58 0
-19 -59 0
-15 -60 0
-16 -61 0
-17 -62 0
-18 -63 0
-19 -64 0
-16 -101 0
-17 -102 0
-18 -103 0
-19 -104 0
-15 -118 0
-16 -119 0
-17 -120 0
-18 -121 0
-19 -122 0
-20 -41 0
-21 -43 0
-22 -44 0
-23 -45 0
-21 -70 0
-22 -71 0
-23 -72 0
-20 -73 0
-21 -75 0
-22 -76 0
-23 -77 0
-20 -96 0
-21 -98 0
-22 -99 0
-23 -100 0
-24 -55 0
-25 -57 0
-26 -58 0
-27 -59 0
-28 -96 0
-29 -97 0
-30 -98 0
-31 -99 0
-32 -100 0
-34 -83 0
-35 -84 0
-36 -85 0
-37 -86 0
-33 -91 0
-34 -92 0
-35 -93 0
-36 -94 0
-37 -95 0
-33 -110 0
-35 -111 0
-36 -112 0
-37 -113 0
-38 -42 0
-39 -44 0
-40 -45 0
-38 -47 0
-39 -49 0
-40 -50 0
-38 -74 0
-39 -76 0
-40 -77 0
-38 -88 0
-39 -89 0
-40 -90 0
-38 -92 0
-39 -94 0
-40 -95 0
-38 -106 0
-39 -108 0
-40 -109 0
-41 -87 0
-42 -88 0
-44 -89 0
-45 -90 0
-41 -118 0
-42 -119 0
-43 -120 0
-44 -121 0
-45 -122 0
-46 -87 0
-47 -88 0
-49 -89 0
-50 -90 0
-47 -101 0
-48 -102 0
-49 -103 0
-50 -104 0
-56 -83 0
-57 -84 0
-58 -85 0
-59 -86 0
-61 -83 0
-62 -84 0
-63 -85 0
-64 -86 0
-60 -114 0
-62 -115 0
-63 -116 0
-64 -117 0
-65 -78 0
-66 -80 0
-67 -81 0
-68 -82 0
-65 -87 0
-67 -89 0
-68 -90 0
-65 -91 0
-66 -93 0
-67 -94 0
-68 -95 0
-69 -74 0
-70 -75 0
-71 -76 0
-72 -77 0
-69 -92 0
-70 -93 0
-71 -94 0
-72 -95 0
-73 -91 0
-74 -92 0
-75 -93 0
-76 -94 0
-77 -95 0
-73 -118 0
-74 -119 0
-75 -120 0
-76 -121 0
-77 -122 0
-79 -83 0
-80 -84 0
-81 -85 0
-82 -86 0
-78 -87 0
-79 -88 0
-81 -89 0
-82 -90 0
-78 -96 0
-79 -97 0
-80 -98 0
-81 -99 0
-82 -100 0
-84 -115 0
-85 -116 0
-86 -117 0
-92 -101 0
-93 -102 0
-94 -103 0
-95 -104 0
-97 -101 0
-98 -102 0
-99 -103 0
-100 -104 0
-105 -114 0
-107 -115 0
-108 -116 0
-109 -117 0
